345 5
10 10 10 10 10 

0 0 0 0 0 0 5 2 14 26 38 50 
0 0 0 0 0 0 3 3 9 12 
2 0 3 0 0 0 2 11 4 
10 0 6 0 0 0 1 5 
3 0 8 0 0 0 1 6 
3 0 6 0 0 0 1 7 
1 0 10 0 0 0 1 8 
1 0 10 0 0 0 1 10 
5 0 8 0 0 0 1 11 
1 0 8 0 0 0 1 13 
1 0 8 0 0 0 1 13 
4 0 8 0 0 0 1 13 
0 0 0 0 0 0 1 62 
0 0 0 0 0 0 2 15 18 
5 0 6 0 0 0 1 16 
3 0 4 0 0 0 2 24 17 
6 0 10 0 0 0 1 19 
7 0 10 0 0 0 1 19 
3 0 5 0 0 0 1 20 
4 0 10 0 0 0 2 23 21 
10 0 5 0 0 0 1 22 
7 0 7 0 0 0 1 25 
2 0 8 0 0 0 1 25 
3 0 10 0 0 0 1 25 
0 0 0 0 0 0 1 62 
0 0 0 0 0 0 4 27 29 35 36 
1 2 0 0 0 0 1 28 
2 8 0 0 0 0 1 30 
10 10 0 0 0 0 1 30 
5 6 0 0 0 0 1 31 
8 3 0 0 0 0 1 32 
7 8 0 0 0 0 1 33 
7 10 0 0 0 0 1 34 
10 10 0 0 0 0 1 37 
10 8 0 0 0 0 1 37 
3 10 0 0 0 0 1 37 
0 0 0 0 0 0 1 62 
0 0 0 0 0 0 3 39 42 48 
8 0 0 0 0 2 1 40 
8 0 0 0 0 9 1 41 
10 0 0 0 0 3 1 43 
7 0 0 0 0 6 2 47 45 
6 0 0 0 0 10 1 44 
8 0 0 0 0 7 1 45 
2 0 0 0 0 9 1 46 
10 0 0 0 0 9 1 49 
10 0 0 0 0 10 1 49 
9 0 0 0 0 10 1 49 
0 0 0 0 0 0 1 62 
0 0 0 0 0 0 4 51 53 55 57 
2 0 0 2 0 0 1 52 
4 0 0 5 0 0 1 54 
1 0 0 10 0 0 1 54 
9 0 0 10 0 0 1 56 
5 0 0 7 0 0 1 56 
9 0 0 4 0 0 1 58 
6 0 0 9 0 0 1 58 
2 0 0 10 0 0 1 59 
2 0 0 8 0 0 1 60 
4 0 0 10 0 0 1 61 
0 0 0 0 0 0 1 62 
0 0 0 0 0 0 5 63 75 87 99 111 
0 0 0 0 0 0 2 64 67 
6 0 4 0 0 0 2 71 65 
2 0 10 0 0 0 1 66 
7 0 10 0 0 0 2 73 68 
6 0 5 0 0 0 1 68 
4 0 4 0 0 0 1 69 
9 0 8 0 0 0 1 70 
9 0 10 0 0 0 1 72 
4 0 9 0 0 0 1 72 
1 0 9 0 0 0 1 74 
9 0 6 0 0 0 1 74 
0 0 0 0 0 0 1 123 
0 0 0 0 0 0 1 76 
9 0 0 0 2 0 2 79 77 
2 0 0 0 5 0 1 78 
5 0 0 0 9 0 1 80 
5 0 0 0 8 0 1 80 
6 0 0 0 9 0 2 82 81 
6 0 0 0 4 0 2 85 83 
9 0 0 0 10 0 2 85 84 
1 0 0 0 9 0 1 84 
2 0 0 0 9 0 1 86 
7 0 0 0 10 0 1 86 
0 0 0 0 0 0 1 123 
0 0 0 0 0 0 2 88 89 
8 0 4 0 0 0 2 91 90 
2 0 7 0 0 0 2 93 91 
2 0 7 0 0 0 2 93 92 
5 0 8 0 0 0 1 92 
3 0 4 0 0 0 1 94 
8 0 10 0 0 0 1 94 
5 0 6 0 0 0 1 95 
9 0 10 0 0 0 1 96 
5 0 10 0 0 0 1 97 
5 0 9 0 0 0 1 98 
0 0 0 0 0 0 1 123 
0 0 0 0 0 0 1 100 
5 0 0 0 2 0 2 102 101 
3 0 0 0 6 0 2 105 103 
9 0 0 0 10 0 2 104 103 
6 0 0 0 6 0 1 106 
2 0 0 0 10 0 1 106 
7 0 0 0 10 0 1 106 
2 0 0 0 10 0 1 107 
1 0 0 0 10 0 1 108 
3 0 0 0 6 0 1 109 
7 0 0 0 5 0 1 110 
0 0 0 0 0 0 1 123 
0 0 0 0 0 0 3 112 114 121 
1 0 0 0 1 0 1 113 
6 0 0 0 10 0 1 115 
4 0 0 0 8 0 1 115 
5 0 0 0 9 0 2 120 116 
10 0 0 0 10 0 1 117 
7 0 0 0 7 0 1 118 
2 0 0 0 8 0 1 119 
1 0 0 0 10 0 1 122 
8 0 0 0 7 0 1 122 
8 0 0 0 5 0 1 122 
0 0 0 0 0 0 1 123 
0 0 0 0 0 0 5 124 136 148 160 172 
0 0 0 0 0 0 2 125 127 
1 0 6 0 0 0 1 126 
8 0 4 0 0 0 1 128 
10 0 6 0 0 0 1 128 
7 0 9 0 0 0 1 129 
2 0 9 0 0 0 1 130 
8 0 10 0 0 0 2 132 131 
7 0 10 0 0 0 1 134 
10 0 3 0 0 0 1 133 
1 0 8 0 0 0 1 135 
7 0 10 0 0 0 1 135 
0 0 0 0 0 0 1 184 
0 0 0 0 0 0 2 137 142 
9 0 0 0 0 1 1 138 
9 0 0 0 0 9 3 146 145 139 
4 0 0 0 0 7 1 140 
10 0 0 0 0 9 1 141 
10 0 0 0 0 7 1 143 
3 0 0 0 0 10 1 143 
8 0 0 0 0 9 1 144 
9 0 0 0 0 3 1 147 
2 0 0 0 0 10 1 147 
2 0 0 0 0 10 1 147 
0 0 0 0 0 0 1 184 
0 0 0 0 0 0 1 149 
6 0 0 4 0 0 2 153 150 
8 0 0 8 0 0 1 151 
6 0 0 8 0 0 1 152 
3 0 0 9 0 0 2 155 154 
9 0 0 10 0 0 2 156 155 
4 0 0 8 0 0 2 158 156 
6 0 0 10 0 0 2 158 157 
10 0 0 5 0 0 1 157 
2 0 0 7 0 0 1 159 
10 0 0 6 0 0 1 159 
0 0 0 0 0 0 1 184 
0 0 0 0 0 0 3 161 165 169 
10 0 3 0 0 0 1 162 
2 0 10 0 0 0 2 168 163 
4 0 6 0 0 0 1 164 
3 0 5 0 0 0 1 166 
7 0 5 0 0 0 1 166 
6 0 10 0 0 0 1 167 
2 0 10 0 0 0 1 170 
9 0 10 0 0 0 1 170 
7 0 7 0 0 0 1 170 
9 0 9 0 0 0 1 171 
0 0 0 0 0 0 1 184 
0 0 0 0 0 0 2 173 182 
3 0 0 0 0 5 1 174 
1 0 0 0 0 2 2 181 175 
3 0 0 0 0 6 1 176 
5 0 0 0 0 10 2 180 177 
4 0 0 0 0 10 1 178 
10 0 0 0 0 8 1 179 
2 0 0 0 0 10 1 183 
9 0 0 0 0 10 1 183 
1 0 0 0 0 8 1 183 
5 0 0 0 0 6 1 183 
0 0 0 0 0 0 1 184 
0 0 0 0 0 0 5 185 207 219 241 263 
0 0 0 0 0 0 2 186 188 
1 0 0 0 3 6 2 191 187 
4 0 0 0 6 6 1 189 
4 0 0 0 7 6 1 189 
4 0 0 0 4 10 1 190 
8 0 0 0 10 4 1 192 
1 0 0 0 10 7 1 192 
6 0 0 0 10 5 1 193 
10 0 0 0 7 9 3 203 197 194 
6 0 0 0 3 7 1 195 
8 0 0 0 10 7 1 196 
7 0 0 0 10 10 2 205 198 
7 0 0 0 7 10 2 205 198 
1 0 0 0 5 6 1 199 
6 0 0 0 8 7 1 200 
3 0 0 0 7 5 1 201 
7 0 0 0 9 10 1 202 
3 0 0 0 9 10 1 204 
5 0 0 0 10 10 1 204 
3 0 0 0 5 5 1 206 
1 0 0 0 10 10 1 206 
0 0 0 0 0 0 1 345 
0 0 0 0 0 0 2 208 215 
2 0 4 0 0 0 1 209 
4 0 10 0 0 0 2 217 210 
7 0 8 0 0 0 1 211 
10 0 6 0 0 0 2 214 212 
10 0 10 0 0 0 1 213 
6 0 10 0 0 0 1 216 
1 0 5 0 0 0 1 216 
2 0 10 0 0 0 1 216 
7 0 6 0 0 0 1 218 
1 0 6 0 0 0 1 218 
0 0 0 0 0 0 5 285 297 309 321 333 
0 0 0 0 0 0 1 220 
1 0 4 0 3 0 2 239 221 
9 0 8 0 6 0 2 238 222 
2 0 6 0 7 0 1 223 
3 0 6 0 8 0 2 237 224 
4 0 8 0 4 0 1 225 
5 0 3 0 5 0 1 226 
10 0 10 0 10 0 2 236 227 
2 0 10 0 10 0 1 228 
6 0 9 0 8 0 2 235 229 
6 0 8 0 9 0 1 230 
7 0 8 0 9 0 1 231 
2 0 10 0 10 0 1 232 
10 0 9 0 7 0 1 233 
1 0 3 0 10 0 1 234 
9 0 9 0 10 0 1 240 
8 0 6 0 4 0 1 240 
9 0 9 0 10 0 1 240 
4 0 6 0 6 0 1 240 
1 0 8 0 8 0 1 240 
9 0 10 0 6 0 1 240 
0 0 0 0 0 0 1 345 
0 0 0 0 0 0 1 242 
8 0 0 4 0 4 2 247 243 
6 0 0 3 0 8 1 244 
5 0 0 8 0 5 2 249 245 
3 0 0 7 0 5 1 246 
6 0 0 8 0 5 3 254 253 248 
3 0 0 6 0 9 3 254 253 251 
9 0 0 10 0 8 1 250 
8 0 0 10 0 5 2 253 252 
7 0 0 8 0 10 1 251 
8 0 0 7 0 6 2 256 252 
6 0 0 8 0 8 1 255 
5 0 0 4 0 8 1 256 
10 0 0 9 0 6 1 255 
5 0 0 6 0 7 1 257 
7 0 0 10 0 9 1 257 
6 0 0 4 0 9 1 258 
2 0 0 10 0 9 1 259 
7 0 0 10 0 10 1 260 
2 0 0 8 0 10 1 261 
4 0 0 10 0 9 1 262 
0 0 0 0 0 0 1 345 
0 0 0 0 0 0 3 264 271 283 
10 0 0 0 5 1 2 282 265 
8 0 0 0 6 10 1 266 
8 0 0 0 7 9 2 274 267 
10 0 0 0 10 8 1 268 
7 0 0 0 5 7 1 269 
7 0 0 0 10 8 1 270 
10 0 0 0 8 10 1 272 
6 0 0 0 7 7 1 272 
2 0 0 0 6 10 1 273 
5 0 0 0 10 5 2 281 275 
1 0 0 0 7 4 2 281 275 
4 0 0 0 7 6 1 276 
3 0 0 0 10 10 1 277 
8 0 0 0 5 7 1 278 
5 0 0 0 4 7 1 279 
1 0 0 0 10 10 1 280 
7 0 0 0 6 7 1 284 
9 0 0 0 7 9 1 284 
4 0 0 0 10 7 1 284 
5 0 0 0 10 8 1 284 
0 0 0 0 0 0 1 345 
0 0 0 0 0 0 1 286 
5 0 0 0 2 0 3 295 291 287 
8 0 0 0 9 0 1 288 
2 0 0 0 9 0 2 294 289 
6 0 0 0 10 0 1 290 
2 0 0 0 8 0 1 292 
4 0 0 0 8 0 1 292 
3 0 0 0 4 0 1 293 
9 0 0 0 10 0 1 296 
10 0 0 0 10 0 1 296 
10 0 0 0 5 0 1 296 
0 0 0 0 0 0 1 345 
0 0 0 0 0 0 2 298 299 
9 0 0 2 0 0 2 304 300 
9 0 0 5 0 0 3 307 304 302 
8 0 0 6 0 0 1 301 
7 0 0 10 0 0 2 307 302 
8 0 0 8 0 0 1 303 
5 0 0 9 0 0 1 305 
2 0 0 10 0 0 1 305 
1 0 0 10 0 0 1 306 
3 0 0 6 0 0 1 308 
6 0 0 9 0 0 1 308 
0 0 0 0 0 0 1 345 
0 0 0 0 0 0 2 310 314 
5 3 0 0 0 0 2 319 311 
1 5 0 0 0 0 1 312 
2 5 0 0 0 0 1 313 
5 10 0 0 0 0 1 315 
3 7 0 0 0 0 1 315 
1 10 0 0 0 0 2 318 316 
10 10 0 0 0 0 1 317 
5 10 0 0 0 0 1 320 
10 7 0 0 0 0 1 320 
7 8 0 0 0 0 1 320 
0 0 0 0 0 0 1 345 
0 0 0 0 0 0 2 322 323 
10 0 0 0 0 5 2 329 324 
8 0 0 0 0 8 2 329 324 
9 0 0 0 0 8 1 325 
4 0 0 0 0 10 1 326 
6 0 0 0 0 10 2 331 327 
7 0 0 0 0 6 1 328 
9 0 0 0 0 9 1 330 
4 0 0 0 0 10 1 331 
1 0 0 0 0 5 1 332 
6 0 0 0 0 4 1 332 
0 0 0 0 0 0 1 345 
0 0 0 0 0 0 3 334 335 342 
3 0 0 5 0 0 2 341 336 
4 0 0 5 0 0 2 341 337 
9 0 0 6 0 0 1 337 
8 0 0 7 0 0 1 338 
3 0 0 10 0 0 1 339 
5 0 0 10 0 0 1 340 
10 0 0 10 0 0 1 343 
6 0 0 7 0 0 1 343 
6 0 0 10 0 0 1 343 
7 0 0 5 0 0 1 344 
0 0 0 0 0 0 1 345 
0 0 0 0 0 0 0 
